presolving:
(round 1, fast)       7000 del vars, 13740 del conss, 0 add conss, 6720 chg bounds, 6815 chg sides, 0 chg coeffs, 0 upgd conss, 0 impls, 6720 clqs
   (0.3s) running MILP presolver
   (0.3s) MILP presolver (2 rounds): 0 aggregations, 0 fixings, 0 bound changes
(round 2, exhaustive) 7000 del vars, 13772 del conss, 0 add conss, 6720 chg bounds, 6815 chg sides, 0 chg coeffs, 0 upgd conss, 0 impls, 6720 clqs
(round 3, exhaustive) 7000 del vars, 13772 del conss, 0 add conss, 6720 chg bounds, 6815 chg sides, 0 chg coeffs, 2000 upgd conss, 0 impls, 6720 clqs
(round 4, exhaustive) 7000 del vars, 13772 del conss, 0 add conss, 6720 chg bounds, 6815 chg sides, 0 chg coeffs, 6800 upgd conss, 0 impls, 6720 clqs
   (0.6s) probing: 51/6780 (0.8%) - 0 fixings, 0 aggregations, 0 implications, 0 bound changes
   (0.6s) probing aborted: 50/50 successive totally useless probings
   (0.8s) symmetry computation started: requiring (bin +, int -, cont +), (fixed: bin -, int +, cont -)
   (0.9s) no symmetry present
presolving (5 rounds: 5 fast, 4 medium, 4 exhaustive):
 7000 deleted vars, 13772 deleted constraints, 0 added constraints, 6720 tightened bounds, 0 added holes, 6815 changed sides, 0 changed coefficients
 0 implications, 6720 cliques
presolved problem has 6780 variables (6780 bin, 0 int, 0 impl, 0 cont) and 6832 constraints
   6720 constraints of type <setppc>
     32 constraints of type <linear>
     80 constraints of type <logicor>
Presolving Time: 0.79

 time | node  | left  |LP iter|LP it/n|mem/heur|mdpt |vars |cons |rows |cuts |sepa|confs|strbr|  dualbound   | primalbound  |  gap   | compl. 
p 1.0s|     1 |     0 |     0 |     - |  clique|   0 |6780 |6832 |6832 |   0 |  0 |   0 |   0 | 0.000000e+00 | 8.926235e+03 |    Inf | unknown
  2.2s|     1 |     0 |  2891 |     - |   107M |   0 |6780 |6832 |6832 |   0 |  0 |   0 |   0 | 4.303476e+03 | 8.926235e+03 | 107.42%| unknown
  8.0s|     1 |     0 |  3051 |     - |   118M |   0 |6780 |6832 |6833 |   1 |  1 |   0 |   0 | 4.307635e+03 | 8.926235e+03 | 107.22%| unknown
  8.6s|     1 |     0 |  3216 |     - |   120M |   0 |6780 |6832 |6836 |   4 |  2 |   0 |   0 | 4.311606e+03 | 8.926235e+03 | 107.03%| unknown
 12.9s|     1 |     0 |  3397 |     - |   128M |   0 |6780 |6832 |6837 |   5 |  3 |   0 |   0 | 4.314275e+03 | 8.926235e+03 | 106.90%| unknown
 23.2s|     1 |     0 |  3505 |     - |   132M |   0 |6780 |6832 |6838 |   6 |  4 |   0 |   0 | 4.315778e+03 | 8.926235e+03 | 106.83%| unknown
 23.8s|     1 |     0 |  3643 |     - |   133M |   0 |6780 |6832 |6839 |   7 |  5 |   0 |   0 | 4.317881e+03 | 8.926235e+03 | 106.73%| unknown
 24.5s|     1 |     0 |  3692 |     - |   134M |   0 |6780 |6832 |6840 |   8 |  6 |   0 |   0 | 4.318295e+03 | 8.926235e+03 | 106.71%| unknown
 25.2s|     1 |     0 |  3905 |     - |   135M |   0 |6780 |6832 |6843 |  11 |  7 |   0 |   0 | 4.320604e+03 | 8.926235e+03 | 106.60%| unknown
 25.9s|     1 |     0 |  4049 |     - |   136M |   0 |6780 |6832 |6845 |  13 |  8 |   0 |   0 | 4.321988e+03 | 8.926235e+03 | 106.53%| unknown
 26.6s|     1 |     0 |  4272 |     - |   136M |   0 |6780 |6832 |6848 |  16 |  9 |   0 |   0 | 4.324728e+03 | 8.926235e+03 | 106.40%| unknown
 27.3s|     1 |     0 |  4356 |     - |   137M |   0 |6780 |6832 |6850 |  18 | 10 |   0 |   0 | 4.326113e+03 | 8.926235e+03 | 106.33%| unknown
 27.6s|     1 |     0 |  4543 |     - |   138M |   0 |6780 |6832 |6853 |  21 | 11 |   0 |   0 | 4.328297e+03 | 8.926235e+03 | 106.23%| unknown
 27.9s|     1 |     0 |  4809 |     - |   139M |   0 |6780 |6832 |6855 |  23 | 12 |   0 |   0 | 4.329982e+03 | 8.926235e+03 | 106.15%| unknown
 28.2s|     1 |     0 |  4929 |     - |   140M |   0 |6780 |6832 |6856 |  24 | 13 |   0 |   0 | 4.330423e+03 | 8.926235e+03 | 106.13%| unknown
 time | node  | left  |LP iter|LP it/n|mem/heur|mdpt |vars |cons |rows |cuts |sepa|confs|strbr|  dualbound   | primalbound  |  gap   | compl. 
 28.5s|     1 |     0 |  5051 |     - |   140M |   0 |6780 |6832 |6858 |  26 | 14 |   0 |   0 | 4.331356e+03 | 8.926235e+03 | 106.08%| unknown
 28.8s|     1 |     0 |  5139 |     - |   141M |   0 |6780 |6832 |6859 |  27 | 15 |   0 |   0 | 4.331813e+03 | 8.926235e+03 | 106.06%| unknown
 29.1s|     1 |     0 |  5200 |     - |   142M |   0 |6780 |6832 |6860 |  28 | 16 |   0 |   0 | 4.332291e+03 | 8.926235e+03 | 106.04%| unknown
 29.4s|     1 |     0 |  5335 |     - |   142M |   0 |6780 |6832 |6861 |  30 | 17 |   0 |   0 | 4.332907e+03 | 8.926235e+03 | 106.01%| unknown
 29.7s|     1 |     0 |  5534 |     - |   143M |   0 |6780 |6832 |6863 |  32 | 18 |   0 |   0 | 4.334959e+03 | 8.926235e+03 | 105.91%| unknown
 30.0s|     1 |     0 |  5768 |     - |   144M |   0 |6780 |6832 |6865 |  34 | 19 |   0 |   0 | 4.335721e+03 | 8.926235e+03 | 105.88%| unknown
 30.3s|     1 |     0 |  5823 |     - |   145M |   0 |6780 |6832 |6866 |  35 | 20 |   0 |   0 | 4.335983e+03 | 8.926235e+03 | 105.86%| unknown
d32.7s|     1 |     0 | 10928 |     - |farkasdi|   0 |6780 |6832 |6866 |   0 | 22 |   0 |   0 | 4.335983e+03 | 4.816344e+03 |  11.08%| unknown
L35.4s|     1 |     0 | 15518 |     - |    rens|   0 |6780 |6832 |6866 |  35 | 22 |   0 |   0 | 4.335983e+03 | 4.724042e+03 |   8.95%| unknown
 35.5s|     1 |     0 | 15518 |     - |   146M |   0 |6780 |6832 |6866 |  35 | 22 |   0 |   0 | 4.335983e+03 | 4.724042e+03 |   8.95%| unknown
 35.6s|     1 |     0 | 15518 |     - |   146M |   0 |6780 |6832 |6864 |  35 | 22 |   0 |   0 | 4.335983e+03 | 4.724042e+03 |   8.95%| unknown
 35.8s|     1 |     0 | 15549 |     - |   146M |   0 |6780 |6830 |6865 |  36 | 23 |   0 |   0 | 4.336110e+03 | 4.724042e+03 |   8.95%| unknown
 44.0s|     1 |     2 | 15549 |     - |   146M |   0 |6780 |6830 |6865 |  36 | 24 |   0 |  19 | 4.366333e+03 | 4.724042e+03 |   8.19%| unknown
*90.2s|    11 |     5 | 29872 |2401.8 |strongbr|   5 |6780 |6842 |6858 |  36 |  2 |  12 | 182 | 4.447168e+03 | 4.610149e+03 |   3.66%|  18.53%
*93.8s|    14 |     5 | 30951 |1930.5 |    LP  |   6 |6780 |6842 |6858 |  36 |  2 |  12 | 202 | 4.447168e+03 | 4.603422e+03 |   3.51%|  28.69%
 time | node  | left  |LP iter|LP it/n|mem/heur|mdpt |vars |cons |rows |cuts |sepa|confs|strbr|  dualbound   | primalbound  |  gap   | compl. 
*99.6s|    51 |     4 | 39760 | 678.1 |    LP  |  10 |6780 |6842 |6858 |  37 |  1 |  12 | 202 | 4.449195e+03 | 4.600389e+03 |   3.40%|  57.91%
*99.7s|    54 |     3 | 39895 | 642.3 |    LP  |  10 |6780 |6842 |6858 |  37 |  2 |  12 | 202 | 4.449195e+03 | 4.544411e+03 |   2.14%|  62.17%

SCIP Status        : problem is solved [optimal solution found]
Solving Time (sec) : 101.86
Solving Nodes      : 61
Primal Bound       : +4.54441137572675e+03 (39 solutions)
Dual Bound         : +4.54441137572675e+03
Gap                : 0.00 %
Solve Status: optimal
Solve Time: 101.88 seconds
Objective Value: 4544.41
